50
24207

537 786
385 779
808 17
322 701
21 659
147 204
671 100
603 570
566 257
112 856
497 332
770 994
897 361
526 377
835 265
794 324
484 255
573 302
774 375
104 584
29 416
817 381
967 730
808 173
29 738
526 903
278 96
744 462
820 891
235 77
664 118
968 292
516 926
350 342
428 601
393 228
521 91
650 55
485 752
145 368
635 309
194 509
702 321
274 597
842 953
895 182
644 509
636 757
389 775
618 675
